127446.80 0
0 224 223 222 221 220 97 219 218 217 216 215 214 213 92 91 90 89 88 189 188 67 66 65 64 63 163 42 41 40 39 38 138 17 16 15 14 13 113 114 115 116 117 118 119 120 121 122 18 19 20 21 22 145 146 147 148 149 27 26 25 24 23 123 124 125 126 127 128 129 130 28 131 132 133 134 135 136 137 33 34 35 36 37 161 162 58 59 60 61 62 187 83 84 85 186 185 184 183 182 181 78 79 80 81 82 207 208 209 210 211 86 87 212 108 109 110 111 112 12 11 10 9 8 7 6 5 4 107 106 105 104 103 206 205 204 203 202 201 77 76 75 74 73 176 177 178 179 180 57 56 55 54 53 157 158 159 160 29 30 31 32 156 155 154 153 152 151 150 48 49 50 51 52 175 174 173 172 171 170 47 46 45 44 43 144 143 142 141 140 139 164 165 166 167 168 169 68 69 70 71 72 193 192 191 190 96 95 94 93 194 195 196 197 198 199 200 98 99 100 101 102 3 2 1